
 102   30
  10   10   10   10   10   10   10   10   10   10   10   10   10   10   10   10   10   10   10   10   10   10   10   10   10   10   10   10   10   10

   0   0   0   0   0   0   0   0   0   0   0   0   0   0   0   0   0   0   0   0   0   0   0   0   0   0   0   0   0   0   0  29 2 3 4 5 6 7 8 9 10 11 12 13 15 16 17 18 19 20 21 22 23 24 25 27 28 30 31 32 39 
   3   0   0   0   0   0   0   0   0   0   0   0   0   0   0   0   0   0   0   3   1   0   0   0   0   0   0   1   0   0   0  20 101 98 78 76 69 61 59 54 53 52 51 49 48 46 45 43 40 36 34 26 
   1   1   0   0   0   0   0   0   0   0   0   0   0   0   0   0   0   0   0   3   0   0   0   1   0   0   0   0   1   0   0  16 96 93 78 77 70 68 60 59 58 54 51 47 43 41 35 33 
   4   0   0   0   3   0   0   0   0   0   0   0   0   1   0   0   0   0   0   0   0   0   0   0   0   2   0   0   0   0   0  15 101 100 96 78 77 69 62 53 51 47 45 41 38 37 36 
   2   0   0   0   0   2   0   0   0   0   1   0   0   0   0   0   1   0   0   0   0   0   0   0   0   0   0   0   0   0   0  14 99 93 77 69 64 62 61 58 57 51 48 44 36 29 
  10   0   1   0   0   0   0   0   0   0   0   0   0   0   1   0   0   1   0   0   0   0   0   0   0   0   0   0   0   5   0   8 101 66 63 58 54 51 47 14 
   1   0   0   0   0   0   0   0   0   0   0   0   1   0   0   0   9   0   2   0   0   1   0   0   0   0   0   0   0   0   0  21 101 99 98 97 96 94 93 91 77 68 65 63 60 59 57 54 52 51 49 47 44 
   2   6   0   0   0   0   0   0   0   0   0   0   0   0   0   0   0   0   0   0   0   0   0   0   0   0   2   0   0   0   0  17 100 97 96 93 78 77 76 73 70 69 68 67 57 52 48 37 33 
   2   0   0   0   0   0   0   1   0   0   0   0   0   0   0   0   0   0   5   0   0   9   0   0   0   0   0   0   0   0   0  15 101 98 94 66 65 63 61 59 58 57 55 53 49 45 42 
   2   0   0   0   0   0   0   0   0   0   0   1   0   4   0   1   0   0   0   0   0   0   0   0   0   0   5   0   6   3   1  17 101 100 99 96 95 93 92 78 75 73 70 68 62 57 55 42 41 
   8   0   0   0   2   0   0   0   0   0   0   0   0   0   0   0   0   0   0   0   0   7   2   0   0   0   0   0   0   5   0  14 101 94 93 78 77 76 69 68 63 52 49 47 43 33 
   5   0   0   0   0   0   0   0   0   0   0   0   0   3   0   0   0   0   0   0   0   0   0   0   0   0   0   0   0   0   0  21 100 98 97 96 94 93 92 90 77 76 74 73 69 68 67 65 62 57 55 52 47 
   4   0   0   0   0   0   0   7   0   4   0   0   0   0   0   0   0   0   0   0   0   0   0   0   0   0   0   0   0   0   0  11 97 96 95 77 70 69 65 59 55 45 41 
   8   0   0   1   3   0   0   6   0   0   0   0   0   0   0   0   0   0   0   6   0   6   0   0   1   0   0   0   0   0   0  15 99 97 96 95 93 92 91 74 70 68 62 60 57 44 41 
   9   8   0   0   0   0   0   0   0   0   5   0   0   0   0   0   0   0   0   0   0   0   6   0   0   0   0   0   0   0   0  11 100 98 97 93 68 65 63 53 50 47 37 
   1   0   0   0   0   0   5   0   0   0   0   0   0   4   0   0   0   0   7   0   0   0   0   8   0   8   0   0   0   6   0  11 98 97 78 77 76 65 62 54 50 45 38 
   8   0   0   3   0   0   0   0   0   0   0   0   0   0   0   0   0   0   0   0   0   0   0   0   0   0   0   0   0   0   3  16 101 97 95 94 93 90 78 77 74 68 61 60 56 53 50 43 
   7   0   0   0   0   0   0   7   0   5   0   0   0   0   0   0   0   0   0   0   0   5   0   0   0   0   0   0   0   0   0  16 101 96 94 93 92 75 73 72 69 64 61 58 57 56 52 46 
   7   0   0   6  10   0   0   0   0   8   0   0   0   0   0   0   0   0   0   0   0   0   0   0  10   0   7   0   0   0   6  14 99 98 96 95 94 92 77 76 65 63 61 56 47 42 
   5   0   0   0   0   0   0   0   0   0   0   0   0   0   0   7   7   0   5   0   0   9   0   0   0   7   0   0   0   4   0  15 98 96 95 88 77 76 75 74 68 67 64 62 56 53 51 
   2   0   3   0   0   0   0   0   0   0   0   0   0   0   0   0   0   0   0   0   0   0   8   0   5   5   0   0   3   0   0  18 101 98 96 94 93 91 88 77 75 74 72 71 69 67 66 64 62 51 
   3   0   0   0   0   0   0   0   0   0   0   0   0   7   0   0   0   0   0   0   0   0   0   6   0   0   0   0   0   0   0  13 100 99 97 95 93 88 76 70 68 62 59 51 48 
   5   0   0   0   0   0   2  10   0   0   0   0   0   0   8   0   0   0   0   0   0   0   0   0   0   0   0   3   0   0   0  11 97 94 91 87 78 76 65 53 51 47 45 
   5   0   0   0   0   0   0   0   0   0   4   0   0   0   0   0   0   0   0   9   0   0   0   7   0   0   0   0   0   0   6  22 100 99 98 97 96 95 94 93 92 91 89 88 87 86 85 76 75 73 70 69 65 61 
   3   0   7   0   0   5   6   0   0   0   0   0   0   0   8   8   0   0   0   0   0   0   7   0   0   0   0   0   0   0   0  10 97 95 91 87 86 74 69 65 53 45 
   6   0   0   0   0   0   0   0   0   0   0   0   0   0   0   0   0   0   0   0   0   0   0   0   7   0   0   0   0   0   0  15 96 95 94 93 92 88 86 84 74 73 70 66 64 57 56 
   9   0   0   0   0   0   0   0   0   0   0   0   0   0   0   0   0   9   0   0   0   0   0   0   0   4   0   0   3   0   0  13 98 96 94 93 91 78 77 74 72 71 68 52 51 
   5   0   0   0   0   0   0   0   0   0   0   0   0   0   0   0   0   0   0   0   0   0   0   0   6   0   0   0   0   0   0   7 101 98 90 77 74 45 44 
   8   3   0   7   0   0   0   0   0  10   0   0   0   0   0   0   0   8   0   0   0   0   0   0   0   0   0   0   0   6   0  15 101 100 98 96 94 92 90 89 78 76 75 74 72 68 56 
   9   0   0   0   4   0   6   0   0   0   0   0   0   0   8   0   0   0   0   6   0   0   0   0   0   0   0   5   0   0   0  12 96 93 89 88 77 76 74 73 72 63 60 57 
   5   0   0   0   0   0   0  10   0   0   0   0   9   0   0   0   0   0   0   0   0   0   0   0   0   9   0   0   0   0   6  12 96 94 91 89 87 86 83 82 76 75 70 53 
  10   0   7   0   0   0   0   0   0   0   0   0   0   0   0   0   0   4   4   0   0   0   0   0   0   0   0   0   0   7   0  16 101 100 95 93 91 90 88 86 83 82 76 75 73 72 71 64 
   1   0   0   0   0   0   0   0   0   0   0   0   6   6   0   0   0   0   0   0   0   0   8   0   4   0   0   0   5   0   0  11 98 92 88 87 86 74 72 65 64 61 56 
  10   0   0   0   0   0   0   0   2   0   0   0   0   0   0   0   0   5   0   0   0   0   0   4   0   0   6   0   0   0   0   9 95 93 92 90 86 74 73 71 47 
   3   0   0   7   0   0   0   0   0   0   0   0   0   0   0   0   0   0   0   0   0  10   0   0   0   0   9   0  10   0   0  13 101 97 95 89 87 83 76 75 74 73 72 71 63 
   2   0   0   0   9   0   0   0   0   0   0   3   0   0   0   0   0   6   0   0   6   4   0   0   0   0   0   0   0   0   0  12 97 95 91 89 88 87 85 72 71 68 65 63 
   7   0   0   0   0   0   0   0   5   5   0   0   0   0   0   0   0   0   0   0   0   0   4   0   0   0   6   0   0   0   0  12 95 94 92 88 87 86 83 81 75 74 72 55 
   7   0   4   0   0   0   0   5   0   0   0   0   0   6   0   0   0   0   0   0   6   0   0   5   8   0   0   8   6   6   0  11 94 93 92 90 88 83 75 74 73 64 56 
   1   0   0   0   8   0   0   0   0   0   0   0   0   0   0   0   0   0   0   3   0   0   0   0   0   0   0   0   0   0   0  12 100 97 94 93 91 87 86 85 84 82 71 54 
   1   0   0   0   0   0   0   0   0   0   7   0   0   0   0   0   0   0   0   0   0   0   0   0   0   5   0   0   0   0   0  13 99 93 92 91 88 87 85 83 82 79 75 71 64 
   1   0   0   0   3   0   0   0   0   0   0   0   0   0   0   0   0   0   0   0   0   0   0   0   0   0   0   0   0   0   0   9 98 94 90 87 80 76 72 61 52 
   4   0   0   0   0   7   0   0   0   0   0   0   0   0   0   0   0   0   0   0   0   1   8   0   0   0   0   0   0   0   7  11 97 88 87 86 84 83 74 72 71 69 64 
   4   0   4   0   0   7   0   0   5   0   0   0   0   0   0   7   0   0   0   0   0   0   2   0   0   7   0   0   0   0   0   9 100 99 91 86 84 82 81 72 57 
   7   0   6   0   0   0   0   0   6   0   0   0   0   0   0   0   0   0   0   0   0   0   0   0   0   0   0   0   0   6   0  10 100 89 87 86 85 83 82 79 73 71 
   8   0   0   0   0   5   0   0   0   0   0  10   0   0   0   0   0   0   4   0   8   0   0   0   0   5   0   0   5   0   0   9 93 92 89 88 82 75 72 71 68 
   1   0   0   0   0   0   0   0   0   0   0   5   0  10   0   0   0   9   5   0   0   0   0   0   0   0   0   0   0   0   0   9 100 90 89 85 82 81 79 77 68 
   5   0   0   0   8   0  10   0   0   0   0   0   0   0   0   0   0   0   0   0   0   0   0   0   7   0   0   0   0   0   0   6 88 85 83 75 72 64 
   4   7   0   0   0   7   0   0   0   0   0   0   0   9   0   0   0   0   0   0   0   0   0   0   5   0   4   8   0   7   0   6 91 86 82 72 71 66 
   7   0   0   0   0   0   0   3   0   0   7   0   0   0   0   9   0   0   0   0   0   0   6   0   0   0   0   0   0   0   0   6 90 89 80 79 73 62 
   2   0   0   0   0   0   0   0   0   0   0   0   0   7   0   0   0   0   0   0   0   0   0   0   6   0   0   0   0   0   0   8 96 91 86 84 83 82 80 79 
   9   0   0   0   0   0   0   0  10   0   9   0   0   6   0   0   0   0   0   0   0   0  10   0   0   3   0   0   0   0   0   7 92 90 86 83 80 79 73 
   6   0   0   0   0   0   4   7   0   0   0   0   0   0   0   0   8   0   0   0   0   0   0  10   0   7   0   0   4   0   0   7 88 86 85 83 82 81 79 
   1   7   0   0   0   0   0   0   0   0   0   0   0   0   0   0   0   0   0   0   6   0   0   0   0   0   0   0   0   0   0   5 99 92 85 73 72 
   9   0   8   0   0   0   0   0   0   0   0   0   0   0   0   0   0   0   0   0   0   0   0   0   5   0   0   0   0   0   0   5 95 90 88 83 72 
   1   6   0   0   0   7   0   0   0   0   0   0   0   0   0   0   0   0   0   0   0   0   0   0   0   0   0   0   0   0   0   1 56 
   5   0   0   0   0   0   0   7   4   0   0   0   0   0   0   0   0   0   0   0   0   9   0   0   0   0   0   0   0   0   0   4 91 85 79 71 
   9   0   0   0   0   0   0   0   7   0   0   0   0   0   0   0   0   0   8   0   8   0   5   0   0   0   0   0   0   3   0   4 87 83 79 71 
  10   0   0   0   0   0   0   0   0   0   0   0   0   0   0   0   0   7   0   0   0   0   0   0   0   0   0   0   0   4   0   4 95 87 80 74 
   1   0   0   0   0   0   0   3   0   0   0   0   0   0   0   0   5   0   0   0   0   0   0   0   0   0   0   0   0   6   0   3 89 74 73 
  10   0   0   0   0   0   0   0   7   0   0   0   0   0   0   0   0   9   0   8   0   0   0   0   0   0   0   0   7   0   0   3 85 83 69 
   7   0   0   0   0  10   0   0   8   0   0   0   0   7   0   0   0   0   0   0   0   0   0   0   0   0   0   0   0   6   0   4 84 83 82 79 
   2   0   6   0   0   0   6   0   0   6   0   0   8   0   0   7   8   2   0   0   0   0   0   0   0   7   0   0   0   0   0   4 87 86 84 81 
   9   0   0   7   0   0   0   0   0   0   0   0   0   0   0   0   0   0   5   0   0   0  10   0   0   0   0   6   0   0   0   4 90 86 81 79 
  10   0   0   0   0   4   0   0   0   0   0   7   0   0   0   0   0   0   0   0   0   0   0   0   0   7   0   0   7   0   0   3 89 81 80 
   6   0   8   0   0   2   3   0   0   0   0   0   0   0   0   0   0   0  10   0   0   5   9   5   8   0   0   0   0   0   0   3 83 82 79 
   5   0   0   0   0   0   0   0   0   0   0   0   0   7   0   0   7   0   0   0   0   0   0   0   0   0   0   0   6   0   0   3 85 83 81 
   1   0   0   8   0   0   0   0   0   0   8   0   0   0   6   0   0   0   0   0   0   6   0   0   0   0   7   0   3   0   0   3 85 83 79 
   9   0   0   0   0   0   0   0   0   0   0   0   0   0   0   0   0   0   0   0   0   0   0   0   0   0   0   0   0   0   7   2 84 80 
  10   0   0   0   0   0   0   0   0   0   0   0   0   0   0   0   0   0   0   0   0   0   0   0   0   0   0   0   0  10   0   2 82 79 
   7   6   0   0   0   0   0   0   3   0   0   0   0   0   6   0   0   0   0   0   0   0   4   0   0   0   0   0   0   0   0   2 90 80 
   7   0   0   0   0   0   0   0   0   0   0   0   0   0   0   0   0   0   0   0   4   0   0   0   9   0   0   0   0   0   0   1 80 
   5   8   0   0   0   0   0   0   0   0   0   0   0   0   0   0   0   0   0   0   0   0   3   0   0   0   0   0   8   0   0   1 79 
   9   0   9   0   0   3   0   0   0   0   0   0   0   0   0   0   0   0   0   0   0   0   0   6   0   0   0   0  10   0   0   1 81 
   2   0   0   0   0   0   0   8   0   0   0   0   0   5   0   0   0   0   0   0   0   0   5   0   0   0   0   6   0   0   0   1 82 
   7   0   0   0   0   0   0   0   0   0   0   0   0   0   0   0   0   0   0   0   0   0   0   0   0   8   0   0   0   0   0   1 84 
   9   0   0   0   0   9   0   0   0   0   0   0   0   0   0   0   0   0   0   0   0   6   0   0   0   0   0   0   0   0   0   1 81 
   8   0   0   0   0   0   0   0   0   6   0   0   0   0   0   5   0   0   0   0   9   0   0   0   0   0   0   0   0   0   7   1 87 
   4   0   0   0   0   0   0   0   0   0   0   0   0   0   0   5   0   3   0   0   6   0   0   0   0   0   0   7   0   0   8   1 88 
   1   0   8   0   0   0  10   0   0   0   0   0   0   0   0   0   0   9   4   0   0   0   0   0   7   0   7   0   6   6   0   1 102
   2   0   0   0   0   0   0   0   0   0   0   0   0   0   0   0   0   0   0   0   0   0   0   0   0   0  10   0   0   0   0   1 102
   6   0   0   0   0   0   0   0   0   0   0   6   0   0   0   0   0   0   0   0   0   0   0   8   5   0   0   0   0   0   8   1 102
  10   0   0   6   8   0   0   3   0   0   0   0   0   0   0   0   0   0   0   0   0   7   0   0   0   0   0   0   0   0   0   1 102
   5   0   0   0   8   0   0   7   0   0   0   0   6   0   0   0   0   0   0   0   0   0   0   0   0   0   0   0   0   0   0   1 102
   9   0   0   0   0   5   0   0   0   0   0   0   0   0   0   0   0   0   0   0   0   0   0   0   0   0   0   6   0   0   0   1 102
   6   0   0   0   0   0   0   0   0   0   0   0   0   0   4   6   5   0   0   0   0   0   0   7   0   0   0   0   0   8   0   1 102
   6   0   0   0   0   0   0   0   0   0   0  10   0   8   0   0   0   0   0   0   0   0   0   0   0   5   0   5   0   0   0   1 102
   5   0   0   0   0   8   0   0   0   0   0   0   0   0   0   7   0   0   0   0   0   0   0   0   0   0   0   5   0   0   6   1 102
   7   0   0   0   0   5   0   0   0   0   0   0   0   0   0   0   7   0   0   0   0   0   7   0   4   5   0   0   0   0   0   1 102
   6   0   0   0   0   7   0   0   0   0   7   5   0   0   0   0   0   0   0   0   0   0   0   0   0   0   0   0   0   0   0   1 102
   1   0   0   0   0   0   0   0   0   0   0   0   0   0   0   0   3   0   0   0   0   0   0   0   0   0   0   0   0   0   0   1 102
   6   0   0   6   0   6   0   0   0   0   0   0   0   0   0   0   9   0   0   0   0   0   0   0   0  10   4   0   0  10   6   1 102
  10   8   0   0   0   0   0   6  10   7   0   0   0   0   0   0   0   0   9   0   0   0   0   0   0   0   0  10   0   0   0   1 102
   8   0   0   0   0   0   0   0   0   0   0   0   0   0   0   0   0   0   0  10   0   0   0   0   0   7   0   0   0   0   0   1 102
   5   0   0   0   0   0   0   0   0   3   0   0   0   0   0   0   0   0   6   5   0   0   0   5   8   4   0   0   0   0   0   1 102
   5   0   0   0   0   0   8   0   6   0   0   7   0   0   0   0   3   0   0   0   0   0   0   0   4   5   0   0  10   0   0   1 102
   7   0   7   0   0   0   0   0   0   0   0   0   0   0   0   0   0   6   0   0   0   0   0   0   0   0   0   0   0   0   0   1 102
   8   0   0   0   0   0   0   0   0   0   0   0   0   0   0   0   0   0   0   0   0   6   0   0   5   0   0   0   0   0   7   1 102
   4   0   0   0   0   0   0   0   0   0   0   0   0   0   0   4   0   0   0   0   0   5   4   0   0   2   0   6   7   0   5   1 102
   2   0   0   0   0   5   0   0   0   0   0   0   0   0   0   0   0   0   0   7   0   0   0   0   0   0   6   8   0   0   7   1 102
   1   0   0   0   0   0   0   0   0   0   0   0   0   0   7   0   0   0   0   0   0   0   0   0   0  10   5   0   0   0   0   1 102
  10   0   0   9   0  10   0   0   5   0   0   0   0   0   0   0   0   0  10   0   0   0   0   0   0   0   0   0   7   0   0   1 102
   0   0   0   0   0   0   0   0   0   0   0   0   0   0   0   0   0   0   0   0   0   0   0   0   0   0   0   0   0   0   0   0 
